(set-option :produce-models true)
(set-logic QF_LRA)
(set-info :notes | Strip-packing problem.|)
(declare-fun x0 () Real)
(declare-fun y0 () Real)
(declare-fun x1 () Real)
(declare-fun y1 () Real)
(declare-fun x2 () Real)
(declare-fun y2 () Real)
(declare-fun x3 () Real)
(declare-fun y3 () Real)
(declare-fun x4 () Real)
(declare-fun y4 () Real)
(declare-fun x5 () Real)
(declare-fun y5 () Real)
(declare-fun x6 () Real)
(declare-fun y6 () Real)
(declare-fun x7 () Real)
(declare-fun y7 () Real)
(declare-fun x8 () Real)
(declare-fun y8 () Real)
(declare-fun x9 () Real)
(declare-fun y9 () Real)
(declare-fun x10 () Real)
(declare-fun y10 () Real)
(declare-fun x11 () Real)
(declare-fun y11 () Real)
(declare-fun x12 () Real)
(declare-fun y12 () Real)
(declare-fun x13 () Real)
(declare-fun y13 () Real)
(declare-fun x14 () Real)
(declare-fun y14 () Real)
(declare-fun z () Real)
(declare-fun c () Real)
(assert (and (= c z) (and (>= x0 0) 
(and (>= y0 0) 
(and (>= x1 0) 
(and (>= y1 0) 
(and (>= x2 0) 
(and (>= y2 0) 
(and (>= x3 0) 
(and (>= y3 0) 
(and (>= x4 0) 
(and (>= y4 0) 
(and (>= x5 0) 
(and (>= y5 0) 
(and (>= x6 0) 
(and (>= y6 0) 
(and (>= x7 0) 
(and (>= y7 0) 
(and (>= x8 0) 
(and (>= y8 0) 
(and (>= x9 0) 
(and (>= y9 0) 
(and (>= x10 0) 
(and (>= y10 0) 
(and (>= x11 0) 
(and (>= y11 0) 
(and (>= x12 0) 
(and (>= y12 0) 
(and (>= x13 0) 
(and (>= y13 0) 
(and (>= x14 0) 
(and (>= y14 0) 
(and (>= z 0) 
(and (>= c 0) 
(and (<= (+ x0 0.2201842006) z) 
(and (<= 0.9745906486 y0) 
(and (<= y0 1.0) 
(and (<= x0 (- 5.6555109862 0.2201842006)) 
(and (>= x0 0) 
(and (<= (+ x1 0.4821007214) z) 
(and (<= 0.7977678295 y1) 
(and (<= y1 1.0) 
(and (<= x1 (- 5.6555109862 0.4821007214)) 
(and (>= x1 0) 
(and (<= (+ x2 0.4312923059) z) 
(and (<= 0.797517711 y2) 
(and (<= y2 1.0) 
(and (<= x2 (- 5.6555109862 0.4312923059)) 
(and (>= x2 0) 
(and (<= (+ x3 0.771014571) z) 
(and (<= 0.7826948176 y3) 
(and (<= y3 1.0) 
(and (<= x3 (- 5.6555109862 0.771014571)) 
(and (>= x3 0) 
(and (<= (+ x4 0.8896054698) z) 
(and (<= 0.7448975786 y4) 
(and (<= y4 1.0) 
(and (<= x4 (- 5.6555109862 0.8896054698)) 
(and (>= x4 0) 
(and (<= (+ x5 0.1972611561) z) 
(and (<= 0.7290912946 y5) 
(and (<= y5 1.0) 
(and (<= x5 (- 5.6555109862 0.1972611561)) 
(and (>= x5 0) 
(and (<= (+ x6 0.6478129658) z) 
(and (<= 0.5776413344 y6) 
(and (<= y6 1.0) 
(and (<= x6 (- 5.6555109862 0.6478129658)) 
(and (>= x6 0) 
(and (<= (+ x7 0.4469394461) z) 
(and (<= 0.5664729537 y7) 
(and (<= y7 1.0) 
(and (<= x7 (- 5.6555109862 0.4469394461)) 
(and (>= x7 0) 
(and (<= (+ x8 0.4358521835) z) 
(and (<= 0.5390381418 y8) 
(and (<= y8 1.0) 
(and (<= x8 (- 5.6555109862 0.4358521835)) 
(and (>= x8 0) 
(and (<= (+ x9 0.4132634396) z) 
(and (<= 0.5127662167 y9) 
(and (<= y9 1.0) 
(and (<= x9 (- 5.6555109862 0.4132634396)) 
(and (>= x9 0) 
(and (<= (+ x10 0.7201845264) z) 
(and (<= 0.4978595564 y10) 
(and (<= y10 1.0) 
(and (<= x10 (- 5.6555109862 0.7201845264)) 
(and (>= x10 0) 
(and (<= (+ x11 0.5357487521) z) 
(and (<= 0.2020359982 y11) 
(and (<= y11 1.0) 
(and (<= x11 (- 5.6555109862 0.5357487521)) 
(and (>= x11 0) 
(and (<= (+ x12 0.1249499417) z) 
(and (<= 0.1443432488 y12) 
(and (<= y12 1.0) 
(and (<= x12 (- 5.6555109862 0.1249499417)) 
(and (>= x12 0) 
(and (<= (+ x13 0.1445911523) z) 
(and (<= 0.0627198721 y13) 
(and (<= y13 1.0) 
(and (<= x13 (- 5.6555109862 0.1445911523)) 
(and (>= x13 0) 
(and (<= (+ x14 0.1156066709) z) 
(and (<= 0.0490800878 y14) 
(and (<= y14 1.0) 
(and (<= x14 (- 5.6555109862 0.1156066709)) 
(and (>= x14 0) 
(and (<= c 5.6555109862) 
(and (or (<= (+ x0 0.2201842006) x1) (or (<= (+ x1 0.4821007214) x0) (or (>= (- y0 0.9745906486) y1) (or (>= (- y1 0.7977678295) y0))))) 
(and (or (<= (+ x0 0.2201842006) x2) (or (<= (+ x2 0.4312923059) x0) (or (>= (- y0 0.9745906486) y2) (or (>= (- y2 0.797517711) y0))))) 
(and (or (<= (+ x0 0.2201842006) x3) (or (<= (+ x3 0.771014571) x0) (or (>= (- y0 0.9745906486) y3) (or (>= (- y3 0.7826948176) y0))))) 
(and (or (<= (+ x0 0.2201842006) x4) (or (<= (+ x4 0.8896054698) x0) (or (>= (- y0 0.9745906486) y4) (or (>= (- y4 0.7448975786) y0))))) 
(and (or (<= (+ x0 0.2201842006) x5) (or (<= (+ x5 0.1972611561) x0) (or (>= (- y0 0.9745906486) y5) (or (>= (- y5 0.7290912946) y0))))) 
(and (or (<= (+ x0 0.2201842006) x6) (or (<= (+ x6 0.6478129658) x0) (or (>= (- y0 0.9745906486) y6) (or (>= (- y6 0.5776413344) y0))))) 
(and (or (<= (+ x0 0.2201842006) x7) (or (<= (+ x7 0.4469394461) x0) (or (>= (- y0 0.9745906486) y7) (or (>= (- y7 0.5664729537) y0))))) 
(and (or (<= (+ x0 0.2201842006) x8) (or (<= (+ x8 0.4358521835) x0) (or (>= (- y0 0.9745906486) y8) (or (>= (- y8 0.5390381418) y0))))) 
(and (or (<= (+ x0 0.2201842006) x9) (or (<= (+ x9 0.4132634396) x0) (or (>= (- y0 0.9745906486) y9) (or (>= (- y9 0.5127662167) y0))))) 
(and (or (<= (+ x0 0.2201842006) x10) (or (<= (+ x10 0.7201845264) x0) (or (>= (- y0 0.9745906486) y10) (or (>= (- y10 0.4978595564) y0))))) 
(and (or (<= (+ x0 0.2201842006) x11) (or (<= (+ x11 0.5357487521) x0) (or (>= (- y0 0.9745906486) y11) (or (>= (- y11 0.2020359982) y0))))) 
(and (or (<= (+ x0 0.2201842006) x12) (or (<= (+ x12 0.1249499417) x0) (or (>= (- y0 0.9745906486) y12) (or (>= (- y12 0.1443432488) y0))))) 
(and (or (<= (+ x0 0.2201842006) x13) (or (<= (+ x13 0.1445911523) x0) (or (>= (- y0 0.9745906486) y13) (or (>= (- y13 0.0627198721) y0))))) 
(and (or (<= (+ x0 0.2201842006) x14) (or (<= (+ x14 0.1156066709) x0) (or (>= (- y0 0.9745906486) y14) (or (>= (- y14 0.0490800878) y0))))) 
(and (or (<= (+ x1 0.4821007214) x2) (or (<= (+ x2 0.4312923059) x1) (or (>= (- y1 0.7977678295) y2) (or (>= (- y2 0.797517711) y1))))) 
(and (or (<= (+ x1 0.4821007214) x3) (or (<= (+ x3 0.771014571) x1) (or (>= (- y1 0.7977678295) y3) (or (>= (- y3 0.7826948176) y1))))) 
(and (or (<= (+ x1 0.4821007214) x4) (or (<= (+ x4 0.8896054698) x1) (or (>= (- y1 0.7977678295) y4) (or (>= (- y4 0.7448975786) y1))))) 
(and (or (<= (+ x1 0.4821007214) x5) (or (<= (+ x5 0.1972611561) x1) (or (>= (- y1 0.7977678295) y5) (or (>= (- y5 0.7290912946) y1))))) 
(and (or (<= (+ x1 0.4821007214) x6) (or (<= (+ x6 0.6478129658) x1) (or (>= (- y1 0.7977678295) y6) (or (>= (- y6 0.5776413344) y1))))) 
(and (or (<= (+ x1 0.4821007214) x7) (or (<= (+ x7 0.4469394461) x1) (or (>= (- y1 0.7977678295) y7) (or (>= (- y7 0.5664729537) y1))))) 
(and (or (<= (+ x1 0.4821007214) x8) (or (<= (+ x8 0.4358521835) x1) (or (>= (- y1 0.7977678295) y8) (or (>= (- y8 0.5390381418) y1))))) 
(and (or (<= (+ x1 0.4821007214) x9) (or (<= (+ x9 0.4132634396) x1) (or (>= (- y1 0.7977678295) y9) (or (>= (- y9 0.5127662167) y1))))) 
(and (or (<= (+ x1 0.4821007214) x10) (or (<= (+ x10 0.7201845264) x1) (or (>= (- y1 0.7977678295) y10) (or (>= (- y10 0.4978595564) y1))))) 
(and (or (<= (+ x1 0.4821007214) x11) (or (<= (+ x11 0.5357487521) x1) (or (>= (- y1 0.7977678295) y11) (or (>= (- y11 0.2020359982) y1))))) 
(and (or (<= (+ x1 0.4821007214) x12) (or (<= (+ x12 0.1249499417) x1) (or (>= (- y1 0.7977678295) y12) (or (>= (- y12 0.1443432488) y1))))) 
(and (or (<= (+ x1 0.4821007214) x13) (or (<= (+ x13 0.1445911523) x1) (or (>= (- y1 0.7977678295) y13) (or (>= (- y13 0.0627198721) y1))))) 
(and (or (<= (+ x1 0.4821007214) x14) (or (<= (+ x14 0.1156066709) x1) (or (>= (- y1 0.7977678295) y14) (or (>= (- y14 0.0490800878) y1))))) 
(and (or (<= (+ x2 0.4312923059) x3) (or (<= (+ x3 0.771014571) x2) (or (>= (- y2 0.797517711) y3) (or (>= (- y3 0.7826948176) y2))))) 
(and (or (<= (+ x2 0.4312923059) x4) (or (<= (+ x4 0.8896054698) x2) (or (>= (- y2 0.797517711) y4) (or (>= (- y4 0.7448975786) y2))))) 
(and (or (<= (+ x2 0.4312923059) x5) (or (<= (+ x5 0.1972611561) x2) (or (>= (- y2 0.797517711) y5) (or (>= (- y5 0.7290912946) y2))))) 
(and (or (<= (+ x2 0.4312923059) x6) (or (<= (+ x6 0.6478129658) x2) (or (>= (- y2 0.797517711) y6) (or (>= (- y6 0.5776413344) y2))))) 
(and (or (<= (+ x2 0.4312923059) x7) (or (<= (+ x7 0.4469394461) x2) (or (>= (- y2 0.797517711) y7) (or (>= (- y7 0.5664729537) y2))))) 
(and (or (<= (+ x2 0.4312923059) x8) (or (<= (+ x8 0.4358521835) x2) (or (>= (- y2 0.797517711) y8) (or (>= (- y8 0.5390381418) y2))))) 
(and (or (<= (+ x2 0.4312923059) x9) (or (<= (+ x9 0.4132634396) x2) (or (>= (- y2 0.797517711) y9) (or (>= (- y9 0.5127662167) y2))))) 
(and (or (<= (+ x2 0.4312923059) x10) (or (<= (+ x10 0.7201845264) x2) (or (>= (- y2 0.797517711) y10) (or (>= (- y10 0.4978595564) y2))))) 
(and (or (<= (+ x2 0.4312923059) x11) (or (<= (+ x11 0.5357487521) x2) (or (>= (- y2 0.797517711) y11) (or (>= (- y11 0.2020359982) y2))))) 
(and (or (<= (+ x2 0.4312923059) x12) (or (<= (+ x12 0.1249499417) x2) (or (>= (- y2 0.797517711) y12) (or (>= (- y12 0.1443432488) y2))))) 
(and (or (<= (+ x2 0.4312923059) x13) (or (<= (+ x13 0.1445911523) x2) (or (>= (- y2 0.797517711) y13) (or (>= (- y13 0.0627198721) y2))))) 
(and (or (<= (+ x2 0.4312923059) x14) (or (<= (+ x14 0.1156066709) x2) (or (>= (- y2 0.797517711) y14) (or (>= (- y14 0.0490800878) y2))))) 
(and (or (<= (+ x3 0.771014571) x4) (or (<= (+ x4 0.8896054698) x3) (or (>= (- y3 0.7826948176) y4) (or (>= (- y4 0.7448975786) y3))))) 
(and (or (<= (+ x3 0.771014571) x5) (or (<= (+ x5 0.1972611561) x3) (or (>= (- y3 0.7826948176) y5) (or (>= (- y5 0.7290912946) y3))))) 
(and (or (<= (+ x3 0.771014571) x6) (or (<= (+ x6 0.6478129658) x3) (or (>= (- y3 0.7826948176) y6) (or (>= (- y6 0.5776413344) y3))))) 
(and (or (<= (+ x3 0.771014571) x7) (or (<= (+ x7 0.4469394461) x3) (or (>= (- y3 0.7826948176) y7) (or (>= (- y7 0.5664729537) y3))))) 
(and (or (<= (+ x3 0.771014571) x8) (or (<= (+ x8 0.4358521835) x3) (or (>= (- y3 0.7826948176) y8) (or (>= (- y8 0.5390381418) y3))))) 
(and (or (<= (+ x3 0.771014571) x9) (or (<= (+ x9 0.4132634396) x3) (or (>= (- y3 0.7826948176) y9) (or (>= (- y9 0.5127662167) y3))))) 
(and (or (<= (+ x3 0.771014571) x10) (or (<= (+ x10 0.7201845264) x3) (or (>= (- y3 0.7826948176) y10) (or (>= (- y10 0.4978595564) y3))))) 
(and (or (<= (+ x3 0.771014571) x11) (or (<= (+ x11 0.5357487521) x3) (or (>= (- y3 0.7826948176) y11) (or (>= (- y11 0.2020359982) y3))))) 
(and (or (<= (+ x3 0.771014571) x12) (or (<= (+ x12 0.1249499417) x3) (or (>= (- y3 0.7826948176) y12) (or (>= (- y12 0.1443432488) y3))))) 
(and (or (<= (+ x3 0.771014571) x13) (or (<= (+ x13 0.1445911523) x3) (or (>= (- y3 0.7826948176) y13) (or (>= (- y13 0.0627198721) y3))))) 
(and (or (<= (+ x3 0.771014571) x14) (or (<= (+ x14 0.1156066709) x3) (or (>= (- y3 0.7826948176) y14) (or (>= (- y14 0.0490800878) y3))))) 
(and (or (<= (+ x4 0.8896054698) x5) (or (<= (+ x5 0.1972611561) x4) (or (>= (- y4 0.7448975786) y5) (or (>= (- y5 0.7290912946) y4))))) 
(and (or (<= (+ x4 0.8896054698) x6) (or (<= (+ x6 0.6478129658) x4) (or (>= (- y4 0.7448975786) y6) (or (>= (- y6 0.5776413344) y4))))) 
(and (or (<= (+ x4 0.8896054698) x7) (or (<= (+ x7 0.4469394461) x4) (or (>= (- y4 0.7448975786) y7) (or (>= (- y7 0.5664729537) y4))))) 
(and (or (<= (+ x4 0.8896054698) x8) (or (<= (+ x8 0.4358521835) x4) (or (>= (- y4 0.7448975786) y8) (or (>= (- y8 0.5390381418) y4))))) 
(and (or (<= (+ x4 0.8896054698) x9) (or (<= (+ x9 0.4132634396) x4) (or (>= (- y4 0.7448975786) y9) (or (>= (- y9 0.5127662167) y4))))) 
(and (or (<= (+ x4 0.8896054698) x10) (or (<= (+ x10 0.7201845264) x4) (or (>= (- y4 0.7448975786) y10) (or (>= (- y10 0.4978595564) y4))))) 
(and (or (<= (+ x4 0.8896054698) x11) (or (<= (+ x11 0.5357487521) x4) (or (>= (- y4 0.7448975786) y11) (or (>= (- y11 0.2020359982) y4))))) 
(and (or (<= (+ x4 0.8896054698) x12) (or (<= (+ x12 0.1249499417) x4) (or (>= (- y4 0.7448975786) y12) (or (>= (- y12 0.1443432488) y4))))) 
(and (or (<= (+ x4 0.8896054698) x13) (or (<= (+ x13 0.1445911523) x4) (or (>= (- y4 0.7448975786) y13) (or (>= (- y13 0.0627198721) y4))))) 
(and (or (<= (+ x4 0.8896054698) x14) (or (<= (+ x14 0.1156066709) x4) (or (>= (- y4 0.7448975786) y14) (or (>= (- y14 0.0490800878) y4))))) 
(and (or (<= (+ x5 0.1972611561) x6) (or (<= (+ x6 0.6478129658) x5) (or (>= (- y5 0.7290912946) y6) (or (>= (- y6 0.5776413344) y5))))) 
(and (or (<= (+ x5 0.1972611561) x7) (or (<= (+ x7 0.4469394461) x5) (or (>= (- y5 0.7290912946) y7) (or (>= (- y7 0.5664729537) y5))))) 
(and (or (<= (+ x5 0.1972611561) x8) (or (<= (+ x8 0.4358521835) x5) (or (>= (- y5 0.7290912946) y8) (or (>= (- y8 0.5390381418) y5))))) 
(and (or (<= (+ x5 0.1972611561) x9) (or (<= (+ x9 0.4132634396) x5) (or (>= (- y5 0.7290912946) y9) (or (>= (- y9 0.5127662167) y5))))) 
(and (or (<= (+ x5 0.1972611561) x10) (or (<= (+ x10 0.7201845264) x5) (or (>= (- y5 0.7290912946) y10) (or (>= (- y10 0.4978595564) y5))))) 
(and (or (<= (+ x5 0.1972611561) x11) (or (<= (+ x11 0.5357487521) x5) (or (>= (- y5 0.7290912946) y11) (or (>= (- y11 0.2020359982) y5))))) 
(and (or (<= (+ x5 0.1972611561) x12) (or (<= (+ x12 0.1249499417) x5) (or (>= (- y5 0.7290912946) y12) (or (>= (- y12 0.1443432488) y5))))) 
(and (or (<= (+ x5 0.1972611561) x13) (or (<= (+ x13 0.1445911523) x5) (or (>= (- y5 0.7290912946) y13) (or (>= (- y13 0.0627198721) y5))))) 
(and (or (<= (+ x5 0.1972611561) x14) (or (<= (+ x14 0.1156066709) x5) (or (>= (- y5 0.7290912946) y14) (or (>= (- y14 0.0490800878) y5))))) 
(and (or (<= (+ x6 0.6478129658) x7) (or (<= (+ x7 0.4469394461) x6) (or (>= (- y6 0.5776413344) y7) (or (>= (- y7 0.5664729537) y6))))) 
(and (or (<= (+ x6 0.6478129658) x8) (or (<= (+ x8 0.4358521835) x6) (or (>= (- y6 0.5776413344) y8) (or (>= (- y8 0.5390381418) y6))))) 
(and (or (<= (+ x6 0.6478129658) x9) (or (<= (+ x9 0.4132634396) x6) (or (>= (- y6 0.5776413344) y9) (or (>= (- y9 0.5127662167) y6))))) 
(and (or (<= (+ x6 0.6478129658) x10) (or (<= (+ x10 0.7201845264) x6) (or (>= (- y6 0.5776413344) y10) (or (>= (- y10 0.4978595564) y6))))) 
(and (or (<= (+ x6 0.6478129658) x11) (or (<= (+ x11 0.5357487521) x6) (or (>= (- y6 0.5776413344) y11) (or (>= (- y11 0.2020359982) y6))))) 
(and (or (<= (+ x6 0.6478129658) x12) (or (<= (+ x12 0.1249499417) x6) (or (>= (- y6 0.5776413344) y12) (or (>= (- y12 0.1443432488) y6))))) 
(and (or (<= (+ x6 0.6478129658) x13) (or (<= (+ x13 0.1445911523) x6) (or (>= (- y6 0.5776413344) y13) (or (>= (- y13 0.0627198721) y6))))) 
(and (or (<= (+ x6 0.6478129658) x14) (or (<= (+ x14 0.1156066709) x6) (or (>= (- y6 0.5776413344) y14) (or (>= (- y14 0.0490800878) y6))))) 
(and (or (<= (+ x7 0.4469394461) x8) (or (<= (+ x8 0.4358521835) x7) (or (>= (- y7 0.5664729537) y8) (or (>= (- y8 0.5390381418) y7))))) 
(and (or (<= (+ x7 0.4469394461) x9) (or (<= (+ x9 0.4132634396) x7) (or (>= (- y7 0.5664729537) y9) (or (>= (- y9 0.5127662167) y7))))) 
(and (or (<= (+ x7 0.4469394461) x10) (or (<= (+ x10 0.7201845264) x7) (or (>= (- y7 0.5664729537) y10) (or (>= (- y10 0.4978595564) y7))))) 
(and (or (<= (+ x7 0.4469394461) x11) (or (<= (+ x11 0.5357487521) x7) (or (>= (- y7 0.5664729537) y11) (or (>= (- y11 0.2020359982) y7))))) 
(and (or (<= (+ x7 0.4469394461) x12) (or (<= (+ x12 0.1249499417) x7) (or (>= (- y7 0.5664729537) y12) (or (>= (- y12 0.1443432488) y7))))) 
(and (or (<= (+ x7 0.4469394461) x13) (or (<= (+ x13 0.1445911523) x7) (or (>= (- y7 0.5664729537) y13) (or (>= (- y13 0.0627198721) y7))))) 
(and (or (<= (+ x7 0.4469394461) x14) (or (<= (+ x14 0.1156066709) x7) (or (>= (- y7 0.5664729537) y14) (or (>= (- y14 0.0490800878) y7))))) 
(and (or (<= (+ x8 0.4358521835) x9) (or (<= (+ x9 0.4132634396) x8) (or (>= (- y8 0.5390381418) y9) (or (>= (- y9 0.5127662167) y8))))) 
(and (or (<= (+ x8 0.4358521835) x10) (or (<= (+ x10 0.7201845264) x8) (or (>= (- y8 0.5390381418) y10) (or (>= (- y10 0.4978595564) y8))))) 
(and (or (<= (+ x8 0.4358521835) x11) (or (<= (+ x11 0.5357487521) x8) (or (>= (- y8 0.5390381418) y11) (or (>= (- y11 0.2020359982) y8))))) 
(and (or (<= (+ x8 0.4358521835) x12) (or (<= (+ x12 0.1249499417) x8) (or (>= (- y8 0.5390381418) y12) (or (>= (- y12 0.1443432488) y8))))) 
(and (or (<= (+ x8 0.4358521835) x13) (or (<= (+ x13 0.1445911523) x8) (or (>= (- y8 0.5390381418) y13) (or (>= (- y13 0.0627198721) y8))))) 
(and (or (<= (+ x8 0.4358521835) x14) (or (<= (+ x14 0.1156066709) x8) (or (>= (- y8 0.5390381418) y14) (or (>= (- y14 0.0490800878) y8))))) 
(and (or (<= (+ x9 0.4132634396) x10) (or (<= (+ x10 0.7201845264) x9) (or (>= (- y9 0.5127662167) y10) (or (>= (- y10 0.4978595564) y9))))) 
(and (or (<= (+ x9 0.4132634396) x11) (or (<= (+ x11 0.5357487521) x9) (or (>= (- y9 0.5127662167) y11) (or (>= (- y11 0.2020359982) y9))))) 
(and (or (<= (+ x9 0.4132634396) x12) (or (<= (+ x12 0.1249499417) x9) (or (>= (- y9 0.5127662167) y12) (or (>= (- y12 0.1443432488) y9))))) 
(and (or (<= (+ x9 0.4132634396) x13) (or (<= (+ x13 0.1445911523) x9) (or (>= (- y9 0.5127662167) y13) (or (>= (- y13 0.0627198721) y9))))) 
(and (or (<= (+ x9 0.4132634396) x14) (or (<= (+ x14 0.1156066709) x9) (or (>= (- y9 0.5127662167) y14) (or (>= (- y14 0.0490800878) y9))))) 
(and (or (<= (+ x10 0.7201845264) x11) (or (<= (+ x11 0.5357487521) x10) (or (>= (- y10 0.4978595564) y11) (or (>= (- y11 0.2020359982) y10))))) 
(and (or (<= (+ x10 0.7201845264) x12) (or (<= (+ x12 0.1249499417) x10) (or (>= (- y10 0.4978595564) y12) (or (>= (- y12 0.1443432488) y10))))) 
(and (or (<= (+ x10 0.7201845264) x13) (or (<= (+ x13 0.1445911523) x10) (or (>= (- y10 0.4978595564) y13) (or (>= (- y13 0.0627198721) y10))))) 
(and (or (<= (+ x10 0.7201845264) x14) (or (<= (+ x14 0.1156066709) x10) (or (>= (- y10 0.4978595564) y14) (or (>= (- y14 0.0490800878) y10))))) 
(and (or (<= (+ x11 0.5357487521) x12) (or (<= (+ x12 0.1249499417) x11) (or (>= (- y11 0.2020359982) y12) (or (>= (- y12 0.1443432488) y11))))) 
(and (or (<= (+ x11 0.5357487521) x13) (or (<= (+ x13 0.1445911523) x11) (or (>= (- y11 0.2020359982) y13) (or (>= (- y13 0.0627198721) y11))))) 
(and (or (<= (+ x11 0.5357487521) x14) (or (<= (+ x14 0.1156066709) x11) (or (>= (- y11 0.2020359982) y14) (or (>= (- y14 0.0490800878) y11))))) 
(and (or (<= (+ x12 0.1249499417) x13) (or (<= (+ x13 0.1445911523) x12) (or (>= (- y12 0.1443432488) y13) (or (>= (- y13 0.0627198721) y12))))) 
(and (or (<= (+ x12 0.1249499417) x14) (or (<= (+ x14 0.1156066709) x12) (or (>= (- y12 0.1443432488) y14) (or (>= (- y14 0.0490800878) y12))))) 
(and (or (<= (+ x13 0.1445911523) x14) (or (<= (+ x14 0.1156066709) x13) (or (>= (- y13 0.0627198721) y14) (or (>= (- y14 0.0490800878) y13))))) )))))))))))))))))))))))))))))))))))))))))))))))))))))))))))))))))))))))))))))))))))))))))))))))))))))))))))))))))))))))))))))))))))))))))))))))))))))))))))))))))))))))))))))))))))))))))))))))))))))))))))))))))))))))
(minimize c)
(check-sat)
(get-objectives)
(exit)
